StringID Type x y demand ReadyTime DueDate ServiceTime
D0 d 35 35.0 0.0 0.0 1000.0 0.0
Dt d 35 35.0 0.0 0.0 1000.0 0.0
C77 c1 53 43.0 14.0 86.0 224.0 10.0
C17 c1 5 30.0 2.0 0.0 959.0 10.0
C37 c2 20 20.0 8.0 0.0 968.0 10.0
C18 c2 20 40.0 12.0 403.0 513.0 10.0
C72 c2 47 16.0 25.0 104.0 252.0 10.0
P0 p 8 39.0 0.0 0.0 1000.0 45.0
param CV := 1000.0 nan nan nan nan
param V := 1.0 nan nan nan nan
